c SAT Generator for power-law distributed variable frequencies
c -g u -v 20 -c 91 -k 3 -p 2.750000 -b 3.200000 -f /home/schmidt/Devel/ni-kop-sat/data/ensemble/ruf20-91/ruf20-91-222 -u 1 -U 1 -s 1059912763
p cnf 20 91
4 6 -8 0
-3 12 -14 0
-12 -13 16 0
8 -17 20 0
-5 -13 -20 0
-8 -9 20 0
8 -12 16 0
6 8 10 0
-4 -13 -20 0
2 11 19 0
-1 9 11 0
-6 15 -16 0
1 3 12 0
1 7 8 0
5 -12 -15 0
3 6 -12 0
-6 7 19 0
13 17 18 0
-1 -13 -19 0
-4 -11 19 0
2 -8 13 0
-4 8 -12 0
12 14 -15 0
-1 2 20 0
7 -10 20 0
7 16 18 0
-2 -7 -20 0
4 -11 -17 0
-5 7 -11 0
-4 6 -15 0
-11 -13 -19 0
3 11 20 0
-8 10 13 0
-5 7 -18 0
-3 4 -19 0
-3 -16 20 0
-3 9 -14 0
-3 -15 -19 0
3 8 -13 0
1 -15 16 0
1 2 15 0
4 -5 -11 0
1 -4 -7 0
-2 -4 -15 0
-7 8 -15 0
1 -2 -16 0
9 -16 -19 0
-3 7 9 0
1 -2 20 0
8 -10 11 0
8 -12 20 0
-10 -16 20 0
-2 17 -20 0
-1 2 9 0
-5 -6 -16 0
-3 -9 -12 0
-7 -8 -20 0
3 -6 10 0
8 13 -16 0
-2 15 17 0
9 12 -17 0
-4 -9 14 0
-2 14 19 0
-2 5 14 0
-12 15 -19 0
2 -13 20 0
12 13 17 0
4 -11 -12 0
-2 5 10 0
-2 17 20 0
-5 -7 -9 0
-2 18 20 0
-2 4 -18 0
5 -15 -19 0
1 10 15 0
2 -8 14 0
12 14 -19 0
7 11 -20 0
-10 -13 -18 0
-13 -14 17 0
5 -8 -12 0
-4 12 -14 0
3 -4 20 0
-8 10 -14 0
3 -7 15 0
-2 5 17 0
7 11 -12 0
2 -5 -11 0
-6 10 15 0
2 -11 20 0
1 -5 -6 0
